(declare-const |main____CPAchecker_TMP_0'| Int)
(declare-const |main____CPAchecker_TMP_1___0'| Int)
(declare-const |main__x'| Int)
(declare-const |__tmp_91_1'| Int)
(declare-const |main__y'| Int)
(declare-const |__tmp_94_0'| Int)
(assert (exists
         ((__tmp_91_1?1 Int) (main__y?2 Int)
            (main____CPAchecker_TMP_1___0?3 Int) (main__x?4 Int))
         (or (and (= |main__y'| main__y?2) (= |main__y'| main__y?2)
                    (= |main__y'| main__y?2) (= |main__y'| main__y?2)
                    (= |main__y'| main__y?2) (= |main__y'| main__y?2)
                    (= |main__y'| main__y?2) (= |main__y'| main__y?2)
                    (= |main__y'| main__y?2) (= |main__y'| main__y?2)
                    (= |main__y'| main__y?2) (= |main__y'| main__y?2)
                    (= |main__y'| main__y?2) (= |main__y'| main__y?2)
                    (= |main__y'| main__y?2) (= |main__y'| main__y?2)
                    (= |main__y'| main__y?2) (= |main__y'| main__y?2)
                    (= |main__y'| main__y?2) (= |main__y'| main__y?2)
                    (= |main__y'| main__y?2) (= |main__y'| main__y?2)
                    (= |main__y'| main__y?2) (= |main__y'| main__y?2)
                    (= |main__y'| main__y?2) (= |main__y'| main__y?2)
                    (= |main__x'| (+ main__x?4 6)) (= |main__y'| main__y?2)
                    (= |main____CPAchecker_TMP_1___0'| main____CPAchecker_TMP_1___0?3)
                    (= |main__y'| main__y?2) (= |main__y'| main__y?2)
                    (= |main__y'| main__y?2) (= |main__y'| main__y?2)
                    (= |main__y'| main__y?2) (= |main__y'| 1)
                    (= |main__y'| 1) (= |main__y'| 1) (= |main__y'| 1)
                    (= |main__y'| 1)
                    (= (+ |__tmp_94_0'| (- |main____CPAchecker_TMP_0'|)) 0)
                    (= |main__y'| 1) (= |main__y'| 1) (= |main__y'| 1)
                    (= |main__y'| 1) (= |__tmp_91_1'| 0) (= |main__y'| 1)
                    (= |main__y'| 1) (= |main__y'| 1) (= |main__y'| 1)
                    (= |main__y'| 1) (= |main__y'| 1) (= |main__y'| 1)
                    (= |main__y'| 1) (= |main__y'| 1) (= |main__y'| 1)
                    (= |main__y'| 1) (= |main__y'| 1) (= |main__y'| 1)
                    (= |main__y'| 1) (= |main__y'| 1) (= |main__y'| 1)
                    (= |main__y'| 1) (= |main__y'| 1) (= |main__y'| 1)
                    (= |main__y'| 1) (= |main__y'| 1) (= |main__y'| 1)
                    (= |main__y'| 1))
               (and (= |main__y'| main__y?2) (= |main__y'| main__y?2)
                      (= |main__y'| main__y?2) (= |main__y'| main__y?2)
                      (= |main__y'| 1) (= |main__y'| 1) (= |main__y'| 1)
                      (= |main__y'| 1) (= |main__y'| main__y?2)
                      (= |main__y'| main__y?2) (= |main__y'| main__y?2)
                      (= |main__y'| main__y?2) (= |main__y'| 1)
                      (= |main__y'| 1) (= |main__y'| 1) (= |main__y'| 1)
                      (= |main__y'| main__y?2) (= |main__y'| main__y?2)
                      (= |main__y'| main__y?2) (= |main__y'| main__y?2)
                      (= |main__y'| 1) (= |main__y'| 1) (= |main__y'| 1)
                      (= |main__y'| 1) (= |main__y'| main__y?2)
                      (= |main__y'| main__y?2) (= |main__x'| (+ main__x?4 5))
                      (= |main__y'| main__y?2)
                      (= |main____CPAchecker_TMP_1___0'| main____CPAchecker_TMP_1___0?3)
                      (= |main__y'| main__y?2) (= |main__y'| 1)
                      (= |main__y'| 1) (= |main__y'| 1) (= |main__y'| 1)
                      (= |main__y'| main__y?2) (= |main__y'| main__y?2)
                      (= |main__y'| main__y?2) (= |main__y'| main__y?2)
                      (= |main__y'| 1)
                      (= (+ |__tmp_94_0'| (- |main____CPAchecker_TMP_0'|)) 0)
                      (= |main__y'| 1) (= |main__y'| 1) (= |main__y'| 1)
                      (= |main__y'| main__y?2) (= |__tmp_91_1'| __tmp_91_1?1)
                      (= |main__y'| main__y?2) (= |main__y'| main__y?2)
                      (= |main__y'| main__y?2) (= |main__y'| 1)
                      (= |main__y'| 1) (= |main__y'| 1) (= |main__y'| 1)
                      (= |main__y'| main__y?2) (= |main__y'| main__y?2)
                      (= |main__y'| main__y?2) (= |main__y'| main__y?2)
                      (= |main__y'| 1) (= |main__y'| 1) (= |main__y'| 1)
                      (= |main__y'| 1) (= |main__y'| main__y?2)
                      (= |main__y'| main__y?2) (= |main__y'| main__y?2)
                      (= |main__y'| main__y?2) (= |main__y'| 1)
                      (= |main__y'| 1) (= |main__y'| 1) (= |main__y'| 1))
               (and (= |main__y'| main__y?2) (= |main__y'| 1)
                      (= |main__y'| main__y?2) (= |main__y'| 1)
                      (= |main__y'| main__y?2) (= |main__y'| 1)
                      (= |main__y'| main__y?2) (= |main__y'| 1)
                      (= |main__y'| main__y?2) (= |main__y'| 1)
                      (= |main__y'| main__y?2) (= |main__y'| 1)
                      (= |main__y'| main__y?2) (= |main__y'| 1)
                      (= |main__y'| main__y?2) (= |main__y'| 1)
                      (= |main__y'| main__y?2) (= |main__y'| 1)
                      (= |main__y'| main__y?2) (= |main__y'| 1)
                      (= |main__y'| main__y?2) (= |main__y'| 1)
                      (= |main__y'| main__y?2) (= |main__y'| 1)
                      (= |main__y'| main__y?2) (= |main__y'| 1)
                      (= |main__x'| (+ main__x?4 6)) (= |main__y'| main__y?2)
                      (= |main____CPAchecker_TMP_1___0'| main____CPAchecker_TMP_1___0?3)
                      (= |main__y'| 1) (= |main__y'| main__y?2)
                      (= |main__y'| 1) (= |main__y'| main__y?2)
                      (= |main__y'| 1) (= |main__y'| main__y?2)
                      (= |main__y'| 1) (= |main__y'| main__y?2)
                      (= |main__y'| 1) (= |main__y'| main__y?2)
                      (= (+ |__tmp_94_0'| (- |main____CPAchecker_TMP_0'|)) 0)
                      (= |main__y'| 1) (= |main__y'| main__y?2)
                      (= |main__y'| 1) (= |main__y'| main__y?2)
                      (= |__tmp_91_1'| __tmp_91_1?1) (= |main__y'| 1)
                      (= |main__y'| main__y?2) (= |main__y'| 1)
                      (= |main__y'| main__y?2) (= |main__y'| 1)
                      (= |main__y'| main__y?2) (= |main__y'| 1)
                      (= |main__y'| main__y?2) (= |main__y'| 1)
                      (= |main__y'| main__y?2) (= |main__y'| 1)
                      (= |main__y'| main__y?2) (= |main__y'| 1)
                      (= |main__y'| main__y?2) (= |main__y'| 1)
                      (= |main__y'| main__y?2) (= |main__y'| 1)
                      (= |main__y'| main__y?2) (= |main__y'| 1)
                      (= |main__y'| main__y?2) (= |main__y'| 1)
                      (= |main__y'| main__y?2) (= |main__y'| 1))
               (and (= |main__y'| 1) (= |main__y'| 1)
                      (= |main__y'| main__y?2) (= |main__y'| main__y?2)
                      (= |main__y'| 1) (= |main__y'| 1)
                      (= |main__y'| main__y?2) (= |main__y'| main__y?2)
                      (= |main__y'| 1) (= |main__y'| 1)
                      (= |main__y'| main__y?2) (= |main__y'| main__y?2)
                      (= |main__y'| 1) (= |main__y'| 1)
                      (= |main__y'| main__y?2) (= |main__y'| main__y?2)
                      (= |main__y'| 1) (= |main__y'| 1)
                      (= |main__y'| main__y?2) (= |main__y'| main__y?2)
                      (= |main__y'| 1) (= |main__y'| 1)
                      (= |main__y'| main__y?2) (= |main__y'| main__y?2)
                      (= |main__y'| 1) (= |main__y'| 1)
                      (= |main__x'| (+ main__x?4 7)) (= |main__y'| main__y?2)
                      (= |main____CPAchecker_TMP_1___0'| main____CPAchecker_TMP_1___0?3)
                      (= |main__y'| main__y?2) (= |main__y'| 1)
                      (= |main__y'| 1) (= |main__y'| main__y?2)
                      (= |main__y'| main__y?2) (= |main__y'| 1)
                      (= |main__y'| 1) (= |main__y'| main__y?2)
                      (= |main__y'| main__y?2) (= |main__y'| 1)
                      (= (+ |__tmp_94_0'| (- |main____CPAchecker_TMP_0'|)) 0)
                      (= |main__y'| 1) (= |main__y'| main__y?2)
                      (= |main__y'| main__y?2) (= |main__y'| 1)
                      (= |__tmp_91_1'| 0) (= |main__y'| 1)
                      (= |main__y'| main__y?2) (= |main__y'| main__y?2)
                      (= |main__y'| 1) (= |main__y'| 1)
                      (= |main__y'| main__y?2) (= |main__y'| main__y?2)
                      (= |main__y'| 1) (= |main__y'| 1)
                      (= |main__y'| main__y?2) (= |main__y'| main__y?2)
                      (= |main__y'| 1) (= |main__y'| 1)
                      (= |main__y'| main__y?2) (= |main__y'| main__y?2)
                      (= |main__y'| 1) (= |main__y'| 1)
                      (= |main__y'| main__y?2) (= |main__y'| main__y?2)
                      (= |main__y'| 1) (= |main__y'| 1)
                      (= |main__y'| main__y?2) (= |main__y'| main__y?2))
               (and (= |main__y'| 1) (= |main__y'| 1) (= |main__y'| 1)
                      (= |main__y'| 1) (= |main__y'| 1) (= |main__y'| 1)
                      (= |main__y'| 1) (= |main__y'| 1)
                      (= |main__y'| main__y?2) (= |main__y'| main__y?2)
                      (= |main__y'| main__y?2) (= |main__y'| main__y?2)
                      (= |main__y'| main__y?2) (= |main__y'| main__y?2)
                      (= |main__y'| main__y?2) (= |main__y'| main__y?2)
                      (= |main__y'| 1) (= |main__y'| 1) (= |main__y'| 1)
                      (= |main__y'| 1) (= |main__y'| 1) (= |main__y'| 1)
                      (= |main__y'| 1) (= |main__y'| 1)
                      (= |main__y'| main__y?2) (= |main__y'| main__y?2)
                      (= |main__x'| (+ main__x?4 5)) (= |main__y'| main__y?2)
                      (= |main____CPAchecker_TMP_1___0'| main____CPAchecker_TMP_1___0?3)
                      (= |main__y'| main__y?2) (= |main__y'| main__y?2)
                      (= |main__y'| main__y?2) (= |main__y'| main__y?2)
                      (= |main__y'| main__y?2) (= |main__y'| 1)
                      (= |main__y'| 1) (= |main__y'| 1) (= |main__y'| 1)
                      (= |main__y'| 1)
                      (= (+ |__tmp_94_0'| (- |main____CPAchecker_TMP_0'|)) 0)
                      (= |main__y'| 1) (= |main__y'| 1) (= |main__y'| 1)
                      (= |main__y'| main__y?2) (= |__tmp_91_1'| __tmp_91_1?1)
                      (= |main__y'| main__y?2) (= |main__y'| main__y?2)
                      (= |main__y'| main__y?2) (= |main__y'| main__y?2)
                      (= |main__y'| main__y?2) (= |main__y'| main__y?2)
                      (= |main__y'| main__y?2) (= |main__y'| 1)
                      (= |main__y'| 1) (= |main__y'| 1) (= |main__y'| 1)
                      (= |main__y'| 1) (= |main__y'| 1) (= |main__y'| 1)
                      (= |main__y'| 1) (= |main__y'| main__y?2)
                      (= |main__y'| main__y?2) (= |main__y'| main__y?2)
                      (= |main__y'| main__y?2) (= |main__y'| main__y?2)
                      (= |main__y'| main__y?2) (= |main__y'| main__y?2)
                      (= |main__y'| main__y?2))
               (and (= |main__y'| 1) (= |main__y'| 1) (= |main__y'| 1)
                      (= |main__y'| 1) (= |main__y'| 1) (= |main__y'| 1)
                      (= |main__y'| 1) (= |main__y'| 1) (= |main__y'| 1)
                      (= |main__y'| 1) (= |main__y'| 1) (= |main__y'| 1)
                      (= |main__y'| 1) (= |main__y'| 1) (= |main__y'| 1)
                      (= |main__y'| 1) (= |main__y'| main__y?2)
                      (= |main__y'| main__y?2) (= |main__y'| main__y?2)
                      (= |main__y'| main__y?2) (= |main__y'| main__y?2)
                      (= |main__y'| main__y?2) (= |main__y'| main__y?2)
                      (= |main__y'| main__y?2) (= |main__y'| main__y?2)
                      (= |main__y'| main__y?2) (= |main__x'| (+ main__x?4 6))
                      (= |main__y'| main__y?2)
                      (= |main____CPAchecker_TMP_1___0'| main____CPAchecker_TMP_1___0?3)
                      (= |main__y'| main__y?2) (= |main__y'| main__y?2)
                      (= |main__y'| main__y?2) (= |main__y'| main__y?2)
                      (= |main__y'| main__y?2) (= |main__y'| 1)
                      (= |main__y'| 1) (= |main__y'| 1) (= |main__y'| 1)
                      (= |main__y'| 1)
                      (= (+ |__tmp_94_0'| (- |main____CPAchecker_TMP_0'|)) 0)
                      (= |main__y'| 1) (= |main__y'| 1) (= |main__y'| 1)
                      (= |main__y'| 1) (= |__tmp_91_1'| 0) (= |main__y'| 1)
                      (= |main__y'| 1) (= |main__y'| 1) (= |main__y'| 1)
                      (= |main__y'| 1) (= |main__y'| 1) (= |main__y'| 1)
                      (= |main__y'| main__y?2) (= |main__y'| main__y?2)
                      (= |main__y'| main__y?2) (= |main__y'| main__y?2)
                      (= |main__y'| main__y?2) (= |main__y'| main__y?2)
                      (= |main__y'| main__y?2) (= |main__y'| main__y?2)
                      (= |main__y'| main__y?2) (= |main__y'| main__y?2)
                      (= |main__y'| main__y?2) (= |main__y'| main__y?2)
                      (= |main__y'| main__y?2) (= |main__y'| main__y?2)
                      (= |main__y'| main__y?2) (= |main__y'| main__y?2)))))
(check-sat)
